c nombre: 27
c densidad: 0.3
p edges 40 267
e 1 2
e 1 4
e 1 5
e 1 6
e 1 7
e 1 9
e 1 16
e 1 18
e 1 19
e 1 23
e 1 28
e 1 31
e 1 32
e 1 34
e 1 35
e 1 37
e 1 38
e 2 4
e 2 6
e 2 9
e 2 14
e 2 19
e 2 20
e 2 21
e 2 24
e 2 26
e 2 31
e 2 37
e 3 6
e 3 7
e 3 8
e 3 16
e 3 17
e 3 18
e 3 20
e 3 23
e 3 24
e 3 33
e 3 34
e 3 35
e 3 36
e 3 37
e 3 38
e 3 39
e 3 40
e 4 7
e 4 8
e 4 9
e 4 10
e 4 11
e 4 12
e 4 13
e 4 20
e 4 24
e 4 26
e 5 9
e 5 13
e 5 16
e 5 24
e 5 25
e 5 33
e 5 34
e 5 37
e 5 38
e 5 40
e 6 8
e 6 9
e 6 10
e 6 11
e 6 13
e 6 16
e 6 21
e 6 22
e 6 23
e 6 24
e 6 25
e 6 30
e 6 33
e 6 35
e 6 37
e 6 39
e 6 40
e 7 9
e 7 10
e 7 11
e 7 17
e 7 18
e 7 21
e 7 22
e 7 25
e 7 26
e 7 27
e 7 28
e 7 34
e 8 10
e 8 14
e 8 17
e 8 23
e 8 26
e 8 29
e 8 31
e 8 32
e 8 35
e 8 39
e 9 10
e 9 11
e 9 12
e 9 20
e 9 21
e 9 28
e 9 30
e 9 31
e 10 11
e 10 12
e 10 13
e 10 17
e 10 20
e 10 24
e 10 25
e 10 26
e 10 31
e 10 37
e 10 38
e 10 40
e 11 14
e 11 16
e 11 20
e 11 21
e 11 26
e 11 32
e 11 37
e 11 38
e 11 40
e 12 15
e 12 17
e 12 18
e 12 19
e 12 21
e 12 24
e 12 37
e 12 40
e 13 17
e 13 20
e 13 23
e 13 28
e 13 30
e 13 31
e 13 32
e 14 16
e 14 17
e 14 18
e 14 24
e 14 25
e 14 28
e 14 31
e 14 32
e 14 35
e 14 38
e 14 40
e 15 18
e 15 19
e 15 20
e 15 21
e 15 22
e 15 24
e 15 32
e 15 34
e 16 17
e 16 20
e 16 24
e 16 26
e 16 29
e 16 31
e 16 32
e 16 35
e 16 36
e 16 38
e 16 39
e 17 19
e 17 20
e 17 25
e 17 28
e 17 30
e 17 31
e 17 32
e 17 33
e 18 21
e 18 22
e 18 29
e 18 33
e 18 35
e 18 38
e 19 20
e 19 22
e 19 26
e 19 30
e 19 32
e 19 34
e 20 21
e 20 27
e 20 29
e 20 30
e 20 31
e 20 33
e 20 36
e 20 38
e 21 28
e 21 30
e 21 34
e 21 36
e 21 39
e 22 24
e 22 31
e 22 33
e 22 34
e 22 35
e 22 40
e 23 24
e 23 30
e 23 33
e 23 34
e 23 35
e 23 37
e 24 26
e 24 30
e 24 33
e 24 35
e 24 36
e 24 39
e 25 27
e 25 34
e 25 36
e 25 37
e 25 40
e 26 27
e 26 31
e 26 33
e 26 40
e 27 28
e 27 29
e 27 30
e 27 33
e 27 37
e 28 31
e 28 32
e 28 34
e 28 36
e 28 37
e 29 30
e 29 31
e 29 33
e 29 38
e 30 31
e 30 34
e 30 36
e 30 37
e 30 38
e 30 39
e 31 34
e 31 37
e 32 35
e 33 39
e 34 37
e 34 38
e 34 39
e 36 40
e 39 40
